(set-logic QF_BV)
(declare-fun x0 () Bool)
(declare-fun x1 () (_ BitVec 32))
(declare-fun x2 () (_ BitVec 32))
(declare-fun x3 () (_ BitVec 32))
(declare-fun x4 () (_ BitVec 16))
(declare-fun x5 () (_ BitVec 32))
(declare-fun x6 () Bool)
(assert (let ((?v_16 (bvsub x5 (_ bv30 32))) (?v_6 ((_ zero_extend 16) x4))) (let ((?v_14 (bvadd (_ bv0 32) ?v_6))) (let ((?v_15 (bvadd ?v_14 x3))) (let ((?v_18 (bvadd ?v_15 (_ bv0 32)))) (let ( (?v_9 (bvadd x3 (_ bv2 32)))) (let ((?v_3 (bvsub (_ bv56 32) ?v_9))) (and true (bvult ?v_16 (bvadd (bvadd x1 x2) (_ bv24 32))) true (bvult ?v_3 (_ bv63 32)) true (bvult ?v_6 (_ bv256 32)) true (= (_ bv38 32) x1) true (= ?v_18 x2) true x6 true x0 true (bvult (_ bv480 32) x5) true))))))))
(check-sat)
(exit)
